
Gurobi 9.5.1 (linux64) logging started Tue 16 Aug 2022 03:49:01 PM MST

Set parameter LogFile to value "/home/local/ASUAD/kmajd1/NNRepLayer_v2/demos/walking_example/global_constraint_upper_10/repair_net/logs/opt_log_multi_18.log"
Gurobi Optimizer version 9.5.1 build v9.5.1rc2 (linux64)
Thread count: 48 physical cores, 96 logical processors, using up to 45 threads
Optimize a model with 16863 rows, 10742 columns and 135231 nonzeros
Model fingerprint: 0x90c67249
Model has 149 quadratic objective terms
Variable types: 5974 continuous, 4768 integer (4768 binary)
Coefficient statistics:
  Matrix range     [4e-03, 2e+02]
  Objective range  [5e-04, 1e+00]
  QObjective range [1e-02, 1e-02]
  Bounds range     [1e+00, 2e+03]
  RHS range        [5e-04, 2e+02]

Concurrent MIP optimizer: 3 concurrent instances (15 threads per instance)

Presolve removed 618 rows and 160 columns
Presolve time: 0.24s
Presolved: 16245 rows, 10582 columns, 134293 nonzeros
Presolved model has 149 quadratic objective terms
Variable types: 5814 continuous, 4768 integer (4768 binary)
Root relaxation presolve removed 4768 rows and 4768 columns
Root relaxation presolved: 11477 rows, 5814 columns, 119989 nonzeros
Root relaxation presolved model has 149 quadratic objective terms


Root relaxation: objective 2.980243e+01, 7069 iterations, 0.52 seconds (0.93 work units)

    Nodes    |    Current Node    |     Objective Bounds      |     Work
 Expl Unexpl |  Obj  Depth IntInf | Incumbent    BestBd   Gap | It/Node Time

     0     0      -    -    -      183.77807   29.80243  83.8%     -    1s
     0     0      -    -    -      181.40052   29.80243  83.6%     -    4s
     0     2      -    -    -      181.34623   29.80243  83.6%     -    6s
    30    46      -    -    -      181.34623   29.80243  83.6%     -   15s
    45    61      -    -    -      181.32865   29.80243  83.6%     -   27s
   104   120      -    -    -       33.70484   29.80243  11.6%     -   39s
   179   225      -    -    -       33.70484   29.80243  11.6%     -   40s
  1146  1162      -    -    -       33.63010   29.80243  11.4%     -   48s
  2701  2848      -    -    -       33.63010   29.80243  11.4%     -   50s
  7306  7633      -    -    -       33.63010   29.80243  11.4%     -   55s
 10092 10093      -    -    -       33.54846   29.80243  11.2%     -   69s
 10094  9109      -    -    -       33.49659   29.80243  11.0%     -   75s

Instance 1 was solved

Explored 254 nodes (79422 simplex iterations) in 83.40 seconds (148.06 work units)
Thread count was 15 (of 96 available processors)

Solution count 10: 33.4484 33.4685 33.4834 ... 33.5432 

Optimal solution found (tolerance 1.10e-01)
Best objective 3.344843437447e+01, best bound 2.980242993011e+01, gap 10.9004%
